CLW05
Position Depot: Center
Horizon for Depot: Large
Position of customers: Cluster
Distribution of the demand: Medium
Width of time windows: Wide
Distribution of the service: Large

VEHICLE 
NUMBER 	 CAPACITY 
 7 	 	 133 
 
CUSTOMER
CUST NO. 	 XCOORD.  	 YCOORD. 	 DEMAND 	 READY TIME 	 DUE DATE 	 SERVICE TIME 
 0 	 	 500 	 	 500 	 	 0 	 	 0 	 	 4473 	 	 0 
  1 	 	 705 	 	 332 	 	 2 	 	 4161 	 	 4440 	 	 168 
  2 	 	 855 	 	 893 	 	 6 	 	 4054 	 	 4295 	 	 177 
  3 	 	 955 	 	 42 	 	 8 	 	 3068 	 	 3540 	 	 142 
  4 	 	 436 	 	 2 	 	 4 	 	 201 	 	 555 	 	 157 
  5 	 	 599 	 	 917 	 	 8 	 	 3511 	 	 3971 	 	 125 
  6 	 	 880 	 	 818 	 	 1 	 	 324 	 	 545 	 	 136 
  7 	 	 666 	 	 546 	 	 6 	 	 3612 	 	 4060 	 	 177 
  8 	 	 691 	 	 453 	 	 7 	 	 783 	 	 1233 	 	 189 
  9 	 	 543 	 	 864 	 	 2 	 	 2759 	 	 3133 	 	 166 
  10 	 	 550 	 	 30 	 	 7 	 	 2086 	 	 2577 	 	 116 
  11 	 	 410 	 	 829 	 	 82 	 	 1578 	 	 1939 	 	 172 
  12 	 	 918 	 	 40 	 	 8 	 	 305 	 	 683 	 	 117 
  13 	 	 959 	 	 48 	 	 60 	 	 1322 	 	 1788 	 	 115 
  14 	 	 388 	 	 37 	 	 70 	 	 516 	 	 834 	 	 104 
  15 	 	 649 	 	 939 	 	 2 	 	 3999 	 	 4407 	 	 151 
  16 	 	 654 	 	 343 	 	 74 	 	 366 	 	 684 	 	 151 
  17 	 	 860 	 	 867 	 	 5 	 	 2031 	 	 2460 	 	 135 
  18 	 	 738 	 	 252 	 	 6 	 	 1812 	 	 2045 	 	 160 
  19 	 	 780 	 	 895 	 	 4 	 	 3278 	 	 3543 	 	 164 
  20 	 	 852 	 	 276 	 	 4 	 	 2450 	 	 2830 	 	 127 
  21 	 	 748 	 	 307 	 	 50 	 	 3908 	 	 4261 	 	 154 
  22 	 	 982 	 	 61 	 	 2 	 	 2614 	 	 2982 	 	 183 
  23 	 	 978 	 	 150 	 	 99 	 	 1982 	 	 2482 	 	 126 
  24 	 	 880 	 	 64 	 	 4 	 	 305 	 	 636 	 	 106 
  25 	 	 776 	 	 336 	 	 9 	 	 2372 	 	 2754 	 	 134 
  26 	 	 689 	 	 951 	 	 2 	 	 2062 	 	 2514 	 	 130 
  27 	 	 503 	 	 4 	 	 96 	 	 189 	 	 571 	 	 124 
  28 	 	 801 	 	 316 	 	 9 	 	 184 	 	 388 	 	 126 
  29 	 	 844 	 	 915 	 	 78 	 	 2250 	 	 2540 	 	 161 
  30 	 	 999 	 	 102 	 	 2 	 	 2314 	 	 2539 	 	 156 
  31 	 	 726 	 	 309 	 	 62 	 	 1683 	 	 2019 	 	 116 
  32 	 	 559 	 	 61 	 	 2 	 	 2295 	 	 2511 	 	 131 
  33 	 	 633 	 	 249 	 	 75 	 	 2537 	 	 3025 	 	 139 
  34 	 	 308 	 	 108 	 	 3 	 	 2253 	 	 2735 	 	 158 
  35 	 	 589 	 	 898 	 	 7 	 	 2105 	 	 2357 	 	 178 
  36 	 	 846 	 	 837 	 	 1 	 	 75 	 	 531 	 	 185 
  37 	 	 848 	 	 843 	 	 10 	 	 48 	 	 537 	 	 169 
  38 	 	 938 	 	 6 	 	 3 	 	 2961 	 	 3161 	 	 139 
  39 	 	 920 	 	 934 	 	 3 	 	 1953 	 	 2415 	 	 142 
  40 	 	 878 	 	 861 	 	 1 	 	 2604 	 	 3000 	 	 137 
  41 	 	 851 	 	 861 	 	 3 	 	 3027 	 	 3256 	 	 168 
  42 	 	 735 	 	 342 	 	 9 	 	 3722 	 	 3922 	 	 134 
  43 	 	 726 	 	 462 	 	 8 	 	 1516 	 	 2016 	 	 147 
  44 	 	 453 	 	 45 	 	 10 	 	 945 	 	 1166 	 	 117 
  45 	 	 402 	 	 43 	 	 7 	 	 1056 	 	 1518 	 	 135 
  46 	 	 567 	 	 923 	 	 6 	 	 196 	 	 471 	 	 105 
  47 	 	 847 	 	 878 	 	 5 	 	 1772 	 	 1977 	 	 117 
  48 	 	 581 	 	 895 	 	 9 	 	 2849 	 	 3164 	 	 150 
  49 	 	 834 	 	 883 	 	 5 	 	 2031 	 	 2429 	 	 164 
  50 	 	 578 	 	 874 	 	 1 	 	 626 	 	 988 	 	 124 
 